p cnf 145 487
2 1 0
2 1 0
-1 -2 0
-5 3 0
-5 4 0
-3 -4 5 0
5 6 -7 0
-5 -6 -7 0
5 -6 7 0
-5 6 7 0
11 9 0
11 -10 0
-9 10 -11 0
-12 -13 -14 0
12 13 -14 0
-12 13 14 0
12 -13 14 0
15 -11 0
15 -14 0
11 14 -15 0
-17 -3 0
-17 16 0
3 -16 17 0
-18 -4 0
-18 17 0
4 -17 18 0
19 15 0
19 -18 0
-15 18 -19 0
20 -8 0
20 19 0
8 -19 -20 0
7 20 -21 0
-7 -20 -21 0
7 -20 21 0
-7 20 21 0
-22 6 0
-22 -8 0
-6 8 22 0
6 -8 -23 0
-6 8 -23 0
6 8 23 0
-6 -8 23 0
24 -18 0
24 -23 0
18 23 -24 0
25 22 0
25 24 0
-22 -24 -25 0
-28 -27 0
-28 -6 0
27 6 28 0
-29 -26 0
-29 28 0
26 -28 29 0
30 25 0
30 29 0
-25 -29 -30 0
21 30 -31 0
-21 -30 -31 0
21 -30 31 0
-21 30 31 0
-32 2 0
-32 31 0
-2 -31 32 0
-34 -9 0
-34 33 0
9 -33 34 0
6 34 -35 0
-6 -34 -35 0
6 -34 35 0
-6 34 35 0
-37 10 0
-37 36 0
-10 -36 37 0
-38 -35 0
-38 -37 0
35 37 38 0
39 18 0
39 -38 0
-18 38 -39 0
-40 16 0
-40 -1 0
-16 1 40 0
41 39 0
41 40 0
-39 -40 -41 0
42 -10 0
42 -14 0
10 14 -42 0
10 -42 -43 0
-10 42 -43 0
10 42 43 0
-10 -42 43 0
-44 -29 0
-44 -43 0
29 43 44 0
45 14 0
45 -16 0
-14 16 -45 0
46 -45 0
46 19 0
45 -19 -46 0
47 44 0
47 46 0
-44 -46 -47 0
-48 41 0
-48 47 0
-41 -47 48 0
-49 -14 0
-49 11 0
14 -11 49 0
50 48 0
50 49 0
-48 -49 -50 0
1 51 0
-1 51 0
-3 33 -52 0
3 -33 -52 0
-3 -33 52 0
3 33 52 0
53 51 0
53 52 0
-51 -52 -53 0
54 -50 0
54 -53 0
50 53 -54 0
55 -27 0
55 27 0
56 -55 0
56 36 0
55 -36 -56 0
58 -57 0
58 45 0
57 -45 -58 0
10 27 -59 0
-10 -27 -59 0
10 -27 59 0
-10 27 59 0
-60 58 0
-60 59 0
-58 -59 60 0
-61 56 0
-61 60 0
-56 -60 61 0
-62 22 0
-62 24 0
-22 -24 62 0
29 -10 -63 0
-29 10 -63 0
29 10 63 0
-29 -10 63 0
-63 -20 -64 0
63 20 -64 0
-63 20 64 0
63 -20 64 0
-65 -44 0
-65 -29 0
44 29 65 0
-64 -65 -66 0
64 65 -66 0
-64 65 66 0
64 -65 66 0
-62 66 -67 0
62 -66 -67 0
-62 -66 67 0
62 66 67 0
-68 -1 0
-68 -16 0
1 16 68 0
-69 68 0
-69 -28 0
-68 28 69 0
-67 -69 -70 0
67 69 -70 0
-67 69 70 0
67 -69 70 0
61 -70 -71 0
-61 70 -71 0
61 70 71 0
-61 -70 71 0
72 -54 0
72 71 0
54 -71 -72 0
-73 -8 0
-73 26 0
8 -26 73 0
-74 -73 0
-74 -34 0
73 34 74 0
-4 -75 0
4 -75 0
-76 35 0
-76 27 0
-35 -27 76 0
77 -14 0
77 -76 0
14 76 -77 0
-78 -75 0
-78 77 0
75 -77 78 0
74 78 -79 0
-74 -78 -79 0
74 -78 79 0
-74 78 79 0
72 79 -80 0
-72 -79 -80 0
72 -79 80 0
-72 79 80 0
81 -65 0
81 28 0
65 -28 -81 0
82 -11 0
82 -17 0
11 17 -82 0
81 -82 -83 0
-81 82 -83 0
81 82 83 0
-81 -82 83 0
-84 -27 0
-84 43 0
27 -43 84 0
-85 -83 0
-85 -84 0
83 84 85 0
86 80 0
86 -85 0
-80 85 -86 0
-87 8 0
-87 13 0
-8 -13 87 0
-88 19 0
-88 87 0
-19 -87 88 0
89 -88 0
89 -11 0
88 11 -89 0
-90 -7 0
-90 -26 0
7 26 90 0
-91 -89 0
-91 -90 0
89 90 91 0
91 -6 -92 0
-91 6 -92 0
91 6 92 0
-91 -6 92 0
-93 -25 0
-93 -19 0
25 19 93 0
-94 92 0
-94 -93 0
-92 93 94 0
90 5 -95 0
-90 -5 -95 0
90 -5 95 0
-90 5 95 0
-82 -95 -96 0
82 95 -96 0
-82 95 96 0
82 -95 96 0
-97 27 0
-97 -88 0
-27 88 97 0
-97 24 -98 0
97 -24 -98 0
-97 -24 98 0
97 24 98 0
98 -82 -99 0
-98 82 -99 0
98 82 99 0
-98 -82 99 0
100 52 0
100 -7 0
-52 7 -100 0
-101 99 0
-101 -100 0
-99 100 101 0
-102 -28 0
-102 -55 0
28 55 102 0
-33 102 -103 0
33 -102 -103 0
-33 -102 103 0
33 102 103 0
-104 -101 0
-104 103 0
101 -103 104 0
-105 -36 0
-105 -5 0
36 5 105 0
-104 -105 -106 0
104 105 -106 0
-104 105 106 0
104 -105 106 0
-107 -6 0
-107 -38 0
6 38 107 0
-108 15 0
-108 107 0
-15 -107 108 0
109 106 0
109 108 0
-106 -108 -109 0
-96 -109 -110 0
96 109 -110 0
-96 109 110 0
96 -109 110 0
-111 -94 0
-111 110 0
94 -110 111 0
-113 8 0
-113 12 0
-8 -12 113 0
113 -114 0
-113 -114 0
-112 114 -115 0
112 -114 -115 0
-112 -114 115 0
112 114 115 0
-116 27 0
-116 9 0
-27 -9 116 0
-117 115 0
-117 116 0
-115 -116 117 0
-52 1 -118 0
52 -1 -118 0
-52 -1 118 0
52 1 118 0
119 13 0
119 -22 0
-13 22 -119 0
-120 -118 0
-120 119 0
118 -119 120 0
5 19 -121 0
-5 -19 -121 0
5 -19 121 0
-5 19 121 0
122 121 0
122 -55 0
-121 55 -122 0
-123 -43 0
-123 -122 0
43 122 123 0
124 -34 0
124 -27 0
34 27 -124 0
-123 124 -125 0
123 -124 -125 0
-123 -124 125 0
123 124 125 0
-126 120 0
-126 -125 0
-120 125 126 0
-127 -117 0
-127 126 0
117 -126 127 0
-128 -111 0
-128 -127 0
111 127 128 0
86 -128 -129 0
-86 128 -129 0
86 128 129 0
-86 -128 129 0
-1 -38 -130 0
1 38 -130 0
-1 38 130 0
1 -38 130 0
-131 -113 0
-131 51 0
113 -51 131 0
-132 -64 0
-132 -131 0
64 131 132 0
-90 -6 -133 0
90 6 -133 0
-90 6 133 0
90 -6 133 0
134 -132 0
134 -133 0
132 133 -134 0
10 90 -135 0
-10 -90 -135 0
10 -90 135 0
-10 90 135 0
-134 -135 -136 0
134 135 -136 0
-134 135 136 0
134 -135 136 0
-137 -130 0
-137 136 0
130 -136 137 0
-15 87 -138 0
15 -87 -138 0
-15 -87 138 0
15 87 138 0
-138 -68 -139 0
138 68 -139 0
-138 68 139 0
138 -68 139 0
140 9 0
140 -12 0
-9 12 -140 0
42 140 -141 0
-42 -140 -141 0
42 -140 141 0
-42 140 141 0
-139 -141 -142 0
139 141 -142 0
-139 141 142 0
139 -141 142 0
143 137 0
143 -142 0
-137 142 -143 0
-129 143 -144 0
129 -143 -144 0
-129 -143 144 0
129 143 144 0
145 32 0
145 -144 0
-32 144 -145 0
1 -13 132 0
41 71 85 -56 132 107 0
35 23 -5 0
-99 11 -15 0
-126 -91 130 12 0
-10 -94 0
91 131 -132 -94 0
35 102 -111 28 -58 -42 0
-20 -142 75 0
-126 -91 -12 17 -28 125 0
56 80 0
128 -76 0
42 -80 83 88 79 0
-29 25 -59 -44 0
48 -55 -63 0
-132 24 -31 0
49 -142 144 -68 0
-68 -56 133 -47 0
136 69 21 141 -63 -50 0
-48 141 -30 -19 64 134 0
63 18 0
57 -140 126 102 0
34 -51 -98 -58 65 -113 0
82 -90 134 0
-27 -68 -88 0
-44 -1 -109 0
-79 36 0
-115 34 -134 -113 -64 0
-17 104 100 81 0
-139 59 -39 89 0
-34 -97 127 110 -65 7 0
-92 -80 87 0
-59 -120 -126 5 122 0
105 21 -144 120 0
137 129 99 0
36 -63 35 105 0
46 8 0
-110 -74 132 99 0
52 56 0
-8 -24 56 142 -43 -59 0
98 49 0
19 -2 -96 112 -119 0
99 -136 65 -17 122 0
120 -103 0
-107 -38 6 0
61 141 0
60 -48 0
69 -107 3 -71 18 0
-47 34 -58 0
-132 -25 97 -69 143 0
145 72 8 -1 0
104 124 -137 -143 -94 0
98 -45 65 -33 52 -23 0
66 -120 -139 -132 0
141 -34 49 -36 0
105 7 -97 -126 8 -62 0
11 -119 68 -69 50 0
-119 -113 -132 109 -30 75 0
-87 84 -25 118 0
88 -95 -120 0
111 57 -45 8 26 0
-54 101 -143 0
137 -114 38 11 109 77 0
145 0
